c Result of efficient AIG-to-CNF conversion using package CNF
p cnf 521 1896
-2 3 -433 -445 0
-2 3 433 445 0
2 -3 0
2 433 -445 0
2 -433 445 0
-3 4 206 -398 0
-3 -4 -206 364 0
-3 -4 -206 -398 0
-3 4 206 364 0
3 -4 206 0
3 4 -206 0
3 -364 398 0
-4 484 5 170 0
-4 -484 170 180 0
4 -170 0
4 -484 -180 0
4 484 -5 0
-5 -485 6 0
-5 485 115 142 0
5 485 -142 0
5 -485 -6 0
5 485 -115 0
-6 486 7 0
-6 -486 90 103 0
6 -486 -90 0
6 486 -7 0
6 -486 -103 0
-7 487 8 0
-7 -487 65 0
7 -487 -65 0
7 487 -8 0
-8 488 9 0
-8 -488 43 0
8 -488 -43 0
8 488 -9 0
-9 516 10 25 0
-9 -516 25 36 0
9 -25 0
9 -516 -36 0
9 516 -10 0
-10 517 11 0
-10 -517 18 0
10 -517 -18 0
10 517 -11 0
-11 518 12 0
-11 -518 15 0
11 -518 -15 0
11 518 -12 0
-12 519 13 0
-12 -519 14 0
12 -519 -14 0
12 519 -13 0
-13 466 520 0
-13 467 -520 0
13 -467 -520 0
13 -466 520 0
-14 468 520 0
-14 469 -520 0
14 -469 -520 0
14 -468 520 0
-15 519 16 0
-15 -519 17 0
15 -519 -17 0
15 519 -16 0
-16 470 520 0
-16 471 -520 0
16 -471 -520 0
16 -470 520 0
-17 472 520 0
-17 473 -520 0
17 -473 -520 0
17 -472 520 0
-18 518 19 0
-18 -518 22 0
18 -518 -22 0
18 518 -19 0
-19 519 20 0
-19 -519 21 0
19 -519 -21 0
19 519 -20 0
-20 474 520 0
-20 475 -520 0
20 -475 -520 0
20 -474 520 0
-21 476 520 0
-21 477 -520 0
21 -477 -520 0
21 -476 520 0
-22 519 23 0
-22 -519 24 0
22 -519 -24 0
22 519 -23 0
-23 478 520 0
-23 479 -520 0
23 -479 -520 0
23 -478 520 0
-24 480 520 0
-24 481 -520 0
24 -481 -520 0
24 -480 520 0
-25 26 32 34 35 0
25 -35 0
25 -26 0
25 -34 0
25 -32 0
-26 513 514 27 29 0
26 -513 0
26 -29 0
26 -27 0
26 -514 0
-27 505 511 512 28 0
27 -28 0
27 -512 0
27 -505 0
27 -511 0
-28 509 510 515 0
28 -509 0
28 -515 0
28 -510 0
-29 501 502 30 31 0
29 -501 0
29 -31 0
29 -30 0
29 -502 0
-30 506 507 508 0
30 -506 0
30 -508 0
30 -507 0
-31 497 498 503 504 0
31 -504 0
31 -503 0
31 -497 0
31 -498 0
-32 495 499 500 33 0
32 -33 0
32 -500 0
32 -495 0
32 -499 0
-33 493 494 0
33 -493 0
33 -494 0
-34 489 496 0
34 -489 0
34 -496 0
-35 490 491 492 0
35 -490 0
35 -492 0
35 -491 0
-36 517 37 0
36 -517 0
36 -37 0
-37 518 38 0
-37 -518 41 0
37 -518 -41 0
37 518 -38 0
-38 519 39 0
-38 -519 40 0
38 -519 -40 0
38 519 -39 0
-39 482 520 0
-39 483 -520 0
39 -483 -520 0
39 -482 520 0
-40 484 520 0
-40 485 -520 0
40 -485 -520 0
40 -484 520 0
-41 519 42 0
-41 488 -519 520 0
41 519 -42 0
41 -519 -520 0
41 -488 -519 0
-42 486 520 0
-42 487 -520 0
42 -487 -520 0
42 -486 520 0
-43 -516 25 59 0
-43 516 25 44 0
43 -25 0
43 -516 -59 0
43 516 -44 0
-44 517 45 0
-44 -517 52 0
44 -517 -52 0
44 517 -45 0
-45 518 46 0
-45 -518 49 0
45 -518 -49 0
45 518 -46 0
-46 519 47 0
-46 -519 48 0
46 -519 -48 0
46 519 -47 0
-47 467 520 0
-47 468 -520 0
47 -468 -520 0
47 -467 520 0
-48 469 520 0
-48 470 -520 0
48 -470 -520 0
48 -469 520 0
-49 519 50 0
-49 -519 51 0
49 -519 -51 0
49 519 -50 0
-50 471 520 0
-50 472 -520 0
50 -472 -520 0
50 -471 520 0
-51 473 520 0
-51 474 -520 0
51 -474 -520 0
51 -473 520 0
-52 518 53 0
-52 -518 56 0
52 -518 -56 0
52 518 -53 0
-53 519 54 0
-53 -519 55 0
53 -519 -55 0
53 519 -54 0
-54 475 520 0
-54 476 -520 0
54 -476 -520 0
54 -475 520 0
-55 477 520 0
-55 478 -520 0
55 -478 -520 0
55 -477 520 0
-56 519 57 0
-56 -519 58 0
56 -519 -58 0
56 519 -57 0
-57 479 520 0
-57 480 -520 0
57 -480 -520 0
57 -479 520 0
-58 481 520 0
-58 482 -520 0
58 -482 -520 0
58 -481 520 0
-59 517 60 0
59 -517 0
59 -60 0
-60 518 61 0
-60 -518 64 0
60 -518 -64 0
60 518 -61 0
-61 519 62 0
-61 -519 63 0
61 -519 -63 0
61 519 -62 0
-62 483 520 0
-62 484 -520 0
62 -484 -520 0
62 -483 520 0
-63 485 520 0
-63 486 -520 0
63 -486 -520 0
63 -485 520 0
-64 488 519 -520 0
-64 487 519 520 0
64 -519 0
64 -487 520 0
64 -488 -520 0
-65 488 66 0
-65 -488 78 0
65 -488 -78 0
65 488 -66 0
-66 -516 25 74 0
-66 516 25 67 0
66 -25 0
66 -516 -74 0
66 516 -67 0
-67 517 68 0
-67 -517 71 0
67 -517 -71 0
67 517 -68 0
-68 518 69 0
-68 -518 70 0
68 -518 -70 0
68 518 -69 0
-69 519 14 0
-69 -519 16 0
69 -519 -16 0
69 519 -14 0
-70 519 17 0
-70 -519 20 0
70 -519 -20 0
70 519 -17 0
-71 518 72 0
-71 -518 73 0
71 -518 -73 0
71 518 -72 0
-72 519 21 0
-72 -519 23 0
72 -519 -23 0
72 519 -21 0
-73 519 24 0
-73 -519 39 0
73 -519 -39 0
73 519 -24 0
-74 517 75 0
74 -517 0
74 -75 0
-75 518 76 0
-75 -518 77 0
75 -518 -77 0
75 518 -76 0
-76 519 40 0
-76 -519 42 0
76 -519 -42 0
76 519 -40 0
-77 488 519 520 0
77 -488 0
77 -520 0
77 -519 0
-78 -516 25 86 0
-78 516 25 79 0
78 -25 0
78 -516 -86 0
78 516 -79 0
-79 517 80 0
-79 -517 83 0
79 -517 -83 0
79 517 -80 0
-80 518 81 0
-80 -518 82 0
80 -518 -82 0
80 518 -81 0
-81 519 48 0
-81 -519 50 0
81 -519 -50 0
81 519 -48 0
-82 519 51 0
-82 -519 54 0
82 -519 -54 0
82 519 -51 0
-83 518 84 0
-83 -518 85 0
83 -518 -85 0
83 518 -84 0
-84 519 55 0
-84 -519 57 0
84 -519 -57 0
84 519 -55 0
-85 519 58 0
-85 -519 62 0
85 -519 -62 0
85 519 -58 0
-86 517 87 0
86 -517 0
86 -87 0
-87 518 88 0
87 -518 0
87 -88 0
-88 519 63 0
-88 -519 89 0
88 -519 -89 0
88 519 -63 0
-89 487 520 0
-89 488 -520 0
89 -488 -520 0
89 -487 520 0
90 487 -488 -97 0
90 487 488 -91 0
-90 -487 0
-90 -488 97 0
-90 488 91 0
-91 -516 25 95 0
-91 516 25 92 0
91 -25 0
91 -516 -95 0
91 516 -92 0
-92 517 93 0
-92 -517 94 0
92 -517 -94 0
92 517 -93 0
-93 518 15 0
-93 -518 19 0
93 -518 -19 0
93 518 -15 0
-94 518 22 0
-94 -518 38 0
94 -518 -38 0
94 518 -22 0
-95 517 96 0
95 -517 0
95 -96 0
-96 518 41 0
96 -518 0
96 -41 0
-97 -516 25 101 0
-97 516 25 98 0
97 -25 0
97 -516 -101 0
97 516 -98 0
-98 517 99 0
-98 -517 100 0
98 -517 -100 0
98 517 -99 0
-99 518 49 0
-99 -518 53 0
99 -518 -53 0
99 518 -49 0
-100 518 56 0
-100 -518 61 0
100 -518 -61 0
100 518 -56 0
-101 517 102 0
101 -517 0
101 -102 0
-102 518 64 0
102 -518 0
102 -64 0
103 -487 -488 -110 0
103 -487 488 -104 0
-103 487 0
-103 -488 110 0
-103 488 104 0
-104 -516 25 108 0
-104 516 25 105 0
104 -25 0
104 -516 -108 0
104 516 -105 0
-105 517 106 0
-105 -517 107 0
105 -517 -107 0
105 517 -106 0
-106 518 70 0
-106 -518 72 0
106 -518 -72 0
106 518 -70 0
-107 518 73 0
-107 -518 76 0
107 -518 -76 0
107 518 -73 0
-108 517 109 0
108 -517 0
108 -109 0
-109 488 518 519 520 0
109 -520 0
109 -519 0
109 -488 0
109 -518 0
-110 111 112 0
110 -111 0
110 -112 0
-111 516 25 0
111 -516 0
111 -25 0
-112 517 113 0
-112 -517 114 0
112 -517 -114 0
112 517 -113 0
-113 518 82 0
-113 -518 84 0
113 -518 -84 0
113 518 -82 0
-114 518 85 0
-114 -518 88 0
114 -518 -88 0
114 518 -85 0
115 -486 -487 -131 0
115 -486 487 -116 0
-115 486 0
-115 -487 131 0
-115 487 116 0
-116 488 117 0
-116 -488 124 0
116 -488 -124 0
116 488 -117 0
-117 -516 25 123 0
-117 516 25 118 0
117 -25 0
117 -516 -123 0
117 516 -118 0
118 -517 -93 0
118 517 -119 0
-118 -517 93 0
-118 517 119 0
119 518 -120 0
119 -518 -12 0
-119 -518 12 0
-119 518 120 0
-120 519 121 0
-120 -519 122 0
120 -519 -122 0
120 519 -121 0
-121 462 520 0
-121 463 -520 0
121 -463 -520 0
121 -462 520 0
-122 464 520 0
-122 465 -520 0
122 -465 -520 0
122 -464 520 0
-123 517 94 0
-123 -517 96 0
123 -517 -96 0
123 517 -94 0
-124 -516 25 130 0
-124 516 25 125 0
124 -25 0
124 -516 -130 0
124 516 -125 0
125 -517 -99 0
125 517 -126 0
-125 -517 99 0
-125 517 126 0
126 518 -127 0
126 -518 -46 0
-126 -518 46 0
-126 518 127 0
-127 519 128 0
-127 -519 129 0
127 -519 -129 0
127 519 -128 0
-128 463 520 0
-128 464 -520 0
128 -464 -520 0
128 -463 520 0
-129 465 520 0
-129 466 -520 0
129 -466 -520 0
129 -465 520 0
-130 517 100 0
-130 -517 102 0
130 -517 -102 0
130 517 -100 0
-131 488 132 0
-131 -488 137 0
131 -488 -137 0
131 488 -132 0
-132 -516 25 136 0
-132 516 25 133 0
132 -25 0
132 -516 -136 0
132 516 -133 0
133 -517 -106 0
133 517 -134 0
-133 -517 106 0
-133 517 134 0
134 518 -135 0
134 -518 -69 0
-134 -518 69 0
-134 518 135 0
-135 -519 13 0
-135 519 122 0
135 519 -122 0
135 -519 -13 0
-136 517 107 0
-136 -517 109 0
136 -517 -109 0
136 517 -107 0
-137 -516 25 141 0
-137 516 25 138 0
137 -25 0
137 -516 -141 0
137 516 -138 0
-138 -517 113 0
-138 517 139 0
138 517 -139 0
138 -517 -113 0
-139 -518 81 0
-139 518 140 0
139 518 -140 0
139 -518 -81 0
-140 -519 47 0
-140 519 129 0
140 519 -129 0
140 -519 -47 0
-141 517 114 0
141 -517 0
141 -114 0
142 486 -143 151 0
142 486 -144 151 0
-142 -486 0
-142 -151 0
-142 143 144 0
-143 487 488 0
143 -487 0
143 -488 0
-144 -516 25 150 0
-144 516 25 145 0
144 -25 0
144 -516 -150 0
144 516 -145 0
145 -517 -11 0
145 517 -146 0
-145 -517 11 0
-145 517 146 0
146 -518 -120 0
146 518 -147 0
-146 -518 120 0
-146 518 147 0
147 519 -149 0
147 -519 -148 0
-147 -519 148 0
-147 519 149 0
-148 460 520 0
-148 461 -520 0
148 -461 -520 0
148 -460 520 0
-149 458 520 0
-149 459 -520 0
149 -459 -520 0
149 -458 520 0
-150 517 18 0
-150 -517 37 0
150 -517 -37 0
150 517 -18 0
-151 -487 -152 0
-151 487 488 0
-151 487 -164 0
151 -487 152 0
151 487 -488 164 0
-152 488 153 0
-152 -488 158 0
152 -488 -158 0
152 488 -153 0
-153 -516 25 157 0
-153 516 25 154 0
153 -25 0
153 -516 -157 0
153 516 -154 0
154 -517 -68 0
154 517 -155 0
-154 -517 68 0
-154 517 155 0
155 -518 -135 0
155 518 -156 0
-155 -518 135 0
-155 518 156 0
156 519 -148 0
156 -519 -121 0
-156 -519 121 0
-156 519 148 0
-157 517 71 0
-157 -517 75 0
157 -517 -75 0
157 517 -71 0
-158 -516 25 163 0
-158 516 25 159 0
158 -25 0
158 -516 -163 0
158 516 -159 0
159 -517 -80 0
159 517 -160 0
-159 -517 80 0
-159 517 160 0
160 518 -161 0
160 -518 -140 0
-160 -518 140 0
-160 518 161 0
-161 -519 128 0
-161 519 162 0
161 519 -162 0
161 -519 -128 0
-162 461 520 0
-162 462 -520 0
162 -462 -520 0
162 -461 520 0
-163 517 83 0
-163 -517 87 0
163 -517 -87 0
163 517 -83 0
-164 -516 25 169 0
-164 516 25 165 0
164 -25 0
164 -516 -169 0
164 516 -165 0
165 -517 -45 0
165 517 -166 0
-165 -517 45 0
-165 517 166 0
166 -518 -127 0
166 518 -167 0
-166 -518 127 0
-166 518 167 0
167 519 -168 0
167 -519 -162 0
-167 -519 162 0
-167 519 168 0
-168 459 520 0
-168 460 -520 0
168 -460 -520 0
168 -459 520 0
-169 517 52 0
-169 -517 60 0
169 -517 -60 0
169 517 -52 0
-170 171 174 176 178 0
170 -178 0
170 -171 0
170 -176 0
170 -174 0
-171 460 472 480 172 0
171 -172 0
171 -480 0
171 -460 0
171 -472 0
-172 475 476 478 173 0
172 -173 0
172 -478 0
172 -475 0
172 -476 0
-173 461 462 481 482 0
173 -482 0
173 -481 0
173 -461 0
173 -462 0
-174 477 479 483 175 0
174 -175 0
174 -483 0
174 -477 0
174 -479 0
-175 457 458 467 473 0
175 -473 0
175 -467 0
175 -457 0
175 -458 0
-176 459 463 470 177 0
176 -177 0
176 -470 0
176 -459 0
176 -463 0
-177 465 466 0
177 -465 0
177 -466 0
-178 468 469 471 179 0
178 -179 0
178 -471 0
178 -468 0
178 -469 0
-179 464 474 0
179 -464 0
179 -474 0
-180 -485 195 0
-180 485 181 188 0
180 485 -181 0
180 -485 -195 0
180 485 -188 0
181 486 -487 -185 0
181 486 487 -182 0
-181 -486 0
-181 -487 185 0
-181 487 182 0
-182 488 183 0
-182 -488 184 0
182 -488 -184 0
182 488 -183 0
-183 111 150 0
183 -111 0
183 -150 0
-184 111 169 0
184 -111 0
184 -169 0
-185 488 186 0
-185 -488 187 0
185 -488 -187 0
185 488 -186 0
-186 111 157 0
186 -111 0
186 -157 0
-187 111 163 0
187 -111 0
187 -163 0
188 -486 -487 -192 0
188 -486 487 -189 0
-188 486 0
-188 -487 192 0
-188 487 189 0
-189 488 190 0
-189 -488 191 0
189 -488 -191 0
189 488 -190 0
-190 111 123 0
190 -111 0
190 -123 0
-191 111 130 0
191 -111 0
191 -130 0
-192 488 193 0
-192 -488 194 0
192 -488 -194 0
192 488 -193 0
-193 111 136 0
193 -111 0
193 -136 0
-194 111 141 0
194 -111 0
194 -141 0
-195 -486 202 0
-195 486 196 199 0
195 486 -196 0
195 -486 -202 0
195 486 -199 0
196 487 -488 -198 0
196 487 488 -197 0
-196 -487 0
-196 -488 198 0
-196 488 197 0
-197 36 111 0
197 -36 0
197 -111 0
-198 59 111 0
198 -59 0
198 -111 0
199 -487 -488 -201 0
199 -487 488 -200 0
-199 487 0
-199 -488 201 0
-199 488 200 0
-200 74 111 0
200 -74 0
200 -111 0
-201 86 111 0
201 -86 0
201 -111 0
-202 487 203 0
-202 -487 108 111 0
202 -487 -108 0
202 487 -203 0
202 -487 -111 0
-203 488 204 0
-203 -488 205 0
203 -488 -205 0
203 488 -204 0
-204 95 111 0
204 -95 0
204 -111 0
-205 101 111 0
205 -101 0
205 -111 0
-206 -516 25 339 0
-206 516 25 207 0
206 -25 0
206 -516 -339 0
206 516 -207 0
-207 517 208 0
-207 -517 314 324 0
207 -517 -314 0
207 517 -208 0
207 -517 -324 0
-208 518 209 0
-208 -518 287 303 0
208 -518 -287 0
208 518 -209 0
208 -518 -303 0
-209 519 210 0
-209 -519 252 0
209 -519 -252 0
209 519 -210 0
-210 520 211 0
-210 -520 224 0
210 -520 -224 0
210 520 -211 0
-211 484 170 0
-211 170 212 0
211 -170 0
211 -484 -212 0
-212 485 213 0
-212 -485 220 0
212 -485 -220 0
212 485 -213 0
-213 486 214 0
-213 -486 217 0
213 -486 -217 0
213 486 -214 0
-214 487 215 0
-214 -487 216 0
214 -487 -216 0
214 487 -215 0
-215 474 488 0
-215 475 -488 0
215 -475 -488 0
215 -474 488 0
-216 476 488 0
-216 477 -488 0
216 -477 -488 0
216 -476 488 0
-217 487 218 0
-217 -487 219 0
217 -487 -219 0
217 487 -218 0
-218 478 488 0
-218 479 -488 0
218 -479 -488 0
218 -478 488 0
-219 480 488 0
-219 481 -488 0
219 -481 -488 0
219 -480 488 0
-220 486 221 0
-220 -486 487 -488 0
-220 -486 -487 488 0
220 486 -221 0
220 -486 -487 -488 0
220 -486 487 488 0
-221 487 222 0
-221 -487 223 0
221 -487 -223 0
221 487 -222 0
-222 482 488 0
-222 483 -488 0
222 -483 -488 0
222 -482 488 0
-223 484 488 0
-223 485 -488 0
223 -485 -488 0
223 -484 488 0
-224 -484 170 240 0
-224 484 170 225 0
224 -170 0
224 -484 -240 0
224 484 -225 0
225 485 -226 0
225 -485 -233 0
-225 -485 233 0
-225 485 226 0
226 486 -227 0
226 -486 -230 0
-226 -486 230 0
-226 486 227 0
227 487 -229 0
227 -487 -228 0
-227 -487 228 0
-227 487 229 0
-228 461 488 0
-228 462 -488 0
228 -462 -488 0
228 -461 488 0
-229 459 488 0
-229 460 -488 0
229 -460 -488 0
229 -459 488 0
-230 487 231 0
-230 -487 232 0
230 -487 -232 0
230 487 -231 0
-231 463 488 0
-231 464 -488 0
231 -464 -488 0
231 -463 488 0
-232 465 488 0
-232 466 -488 0
232 -466 -488 0
232 -465 488 0
-233 486 234 0
-233 -486 237 0
233 -486 -237 0
233 486 -234 0
-234 487 235 0
-234 -487 236 0
234 -487 -236 0
234 487 -235 0
-235 467 488 0
-235 468 -488 0
235 -468 -488 0
235 -467 488 0
-236 469 488 0
-236 470 -488 0
236 -470 -488 0
236 -469 488 0
-237 487 238 0
-237 -487 239 0
237 -487 -239 0
237 487 -238 0
-238 471 488 0
-238 472 -488 0
238 -472 -488 0
238 -471 488 0
-239 473 488 0
-239 474 -488 0
239 -474 -488 0
239 -473 488 0
-240 485 241 0
-240 -485 248 0
240 -485 -248 0
240 485 -241 0
-241 486 242 0
-241 -486 245 0
241 -486 -245 0
241 486 -242 0
-242 487 243 0
-242 -487 244 0
242 -487 -244 0
242 487 -243 0
-243 475 488 0
-243 476 -488 0
243 -476 -488 0
243 -475 488 0
-244 477 488 0
-244 478 -488 0
244 -478 -488 0
244 -477 488 0
-245 487 246 0
-245 -487 247 0
245 -487 -247 0
245 487 -246 0
-246 479 488 0
-246 480 -488 0
246 -480 -488 0
246 -479 488 0
-247 481 488 0
-247 482 -488 0
247 -482 -488 0
247 -481 488 0
248 486 -249 0
248 -486 -143 0
-248 -486 143 0
-248 486 249 0
-249 487 250 0
-249 -487 251 0
249 -487 -251 0
249 487 -250 0
-250 483 488 0
-250 484 -488 0
250 -484 -488 0
250 -483 488 0
-251 485 488 0
-251 486 -488 0
251 -486 -488 0
251 -485 488 0
-252 520 253 0
-252 -520 274 0
252 -520 -274 0
252 520 -253 0
-253 -484 170 268 0
-253 484 170 254 0
253 -170 0
253 -484 -268 0
253 484 -254 0
254 485 -255 0
254 -485 -262 0
-254 -485 262 0
-254 485 255 0
255 486 -256 0
255 -486 -259 0
-255 -486 259 0
-255 486 256 0
256 487 -258 0
256 -487 -257 0
-256 -487 257 0
-256 487 258 0
-257 462 488 0
-257 463 -488 0
257 -463 -488 0
257 -462 488 0
-258 460 488 0
-258 461 -488 0
258 -461 -488 0
258 -460 488 0
-259 487 260 0
-259 -487 261 0
259 -487 -261 0
259 487 -260 0
-260 464 488 0
-260 465 -488 0
260 -465 -488 0
260 -464 488 0
-261 466 488 0
-261 467 -488 0
261 -467 -488 0
261 -466 488 0
-262 486 263 0
-262 -486 266 0
262 -486 -266 0
262 486 -263 0
-263 487 264 0
-263 -487 265 0
263 -487 -265 0
263 487 -264 0
-264 468 488 0
-264 469 -488 0
264 -469 -488 0
264 -468 488 0
-265 470 488 0
-265 471 -488 0
265 -471 -488 0
265 -470 488 0
-266 -487 215 0
-266 487 267 0
266 487 -267 0
266 -487 -215 0
-267 472 488 0
-267 473 -488 0
267 -473 -488 0
267 -472 488 0
-268 485 269 0
-268 -485 272 0
268 -485 -272 0
268 485 -269 0
-269 486 270 0
-269 -486 271 0
269 -486 -271 0
269 486 -270 0
-270 487 216 0
-270 -487 218 0
270 -487 -218 0
270 487 -216 0
-271 487 219 0
-271 -487 222 0
271 -487 -222 0
271 487 -219 0
272 486 -273 0
272 -486 -143 0
-272 -486 143 0
-272 486 273 0
-273 487 223 0
-273 486 -487 488 0
273 487 -223 0
273 -487 -488 0
273 -486 -487 0
-274 -484 170 282 0
-274 484 170 275 0
274 -170 0
274 -484 -282 0
274 484 -275 0
275 485 -276 0
275 -485 -279 0
-275 -485 279 0
-275 485 276 0
276 486 -278 0
276 -486 -277 0
-276 -486 277 0
-276 486 278 0
-277 487 232 0
-277 -487 235 0
277 -487 -235 0
277 487 -232 0
-278 487 228 0
-278 -487 231 0
278 -487 -231 0
278 487 -228 0
-279 486 280 0
-279 -486 281 0
279 -486 -281 0
279 486 -280 0
-280 487 236 0
-280 -487 238 0
280 -487 -238 0
280 487 -236 0
-281 487 239 0
-281 -487 243 0
281 -487 -243 0
281 487 -239 0
-282 485 283 0
-282 -485 286 0
282 -485 -286 0
282 485 -283 0
-283 486 284 0
-283 -486 285 0
283 -486 -285 0
283 486 -284 0
-284 487 244 0
-284 -487 246 0
284 -487 -246 0
284 487 -244 0
-285 487 247 0
-285 -487 250 0
285 -487 -250 0
285 487 -247 0
-286 486 487 -488 0
-286 485 486 487 0
286 -487 0
286 -486 0
286 -485 488 0
287 519 -520 -297 0
287 519 520 -288 0
-287 -519 0
-287 -520 297 0
-287 520 288 0
-288 -484 170 294 0
-288 484 170 289 0
288 -170 0
288 -484 -294 0
288 484 -289 0
289 -485 -292 0
289 485 290 -291 0
-289 485 -290 0
-289 -485 292 0
-289 485 291 0
290 -486 -487 264 0
290 -486 487 261 0
-290 486 0
-290 -487 -264 0
-290 487 -261 0
-291 486 -487 260 0
-291 486 487 257 0
291 -486 0
291 -487 -260 0
291 487 -257 0
-292 -486 214 0
-292 486 293 0
292 486 -293 0
292 -486 -214 0
-293 487 265 0
-293 -487 267 0
293 -487 -267 0
293 487 -265 0
-294 485 295 0
-294 -485 296 0
294 -485 -296 0
294 485 -295 0
-295 486 217 0
-295 -486 221 0
295 -486 -221 0
295 486 -217 0
-296 486 488 0
-296 486 487 0
296 -486 0
296 -487 -488 0
-297 484 170 298 0
-297 -484 170 301 0
297 -170 0
297 -484 -301 0
297 484 -298 0
298 485 -299 0
298 -485 -300 0
-298 -485 300 0
-298 485 299 0
299 -486 -234 0
299 486 -230 0
-299 486 230 0
-299 -486 234 0
-300 486 237 0
-300 -486 242 0
300 -486 -242 0
300 486 -237 0
301 -485 -486 0
301 485 -302 0
301 -485 -143 0
-301 485 302 0
-301 -485 486 143 0
-302 486 245 0
-302 -486 249 0
302 -486 -249 0
302 486 -245 0
303 -519 -520 -310 0
303 -519 520 -304 0
-303 519 0
-303 -520 310 0
-303 520 304 0
-304 484 170 305 0
-304 -484 170 308 0
304 -170 0
304 -484 -308 0
304 484 -305 0
305 485 -306 0
305 -485 -307 0
-305 -485 307 0
-305 485 306 0
306 -486 -263 0
306 486 -259 0
-306 486 259 0
-306 -486 263 0
-307 486 266 0
-307 -486 270 0
307 -486 -270 0
307 486 -266 0
308 -485 -486 0
308 485 -309 0
308 -485 -143 0
-308 485 309 0
-308 -485 486 143 0
-309 486 271 0
-309 -486 487 223 0
309 -486 -487 0
309 486 -271 0
309 -486 -223 0
-310 484 170 0
-310 170 311 0
310 -170 0
310 -484 -311 0
-311 485 312 0
311 -485 0
311 -312 0
-312 486 285 0
-312 -486 313 0
312 -486 -313 0
312 486 -285 0
-313 486 487 -488 0
-313 485 487 488 0
313 -487 0
313 -485 488 0
313 -486 -488 0
314 518 -519 -319 0
314 518 519 -315 0
-314 -518 0
-314 -519 319 0
-314 519 315 0
-315 520 316 0
-315 -520 318 0
315 -520 -318 0
315 520 -316 0
-316 484 170 0
-316 170 317 0
316 -170 0
316 -484 -317 0
-317 485 220 0
317 -485 0
317 -220 0
-318 484 170 0
-318 485 170 248 0
318 -170 0
318 -484 -248 0
318 -484 -485 0
-319 520 320 0
-319 -520 322 0
319 -520 -322 0
319 520 -320 0
-320 484 170 0
-320 170 321 0
320 -170 0
320 -484 -321 0
-321 485 272 0
321 -485 0
321 -272 0
-322 484 170 0
-322 170 323 0
322 -170 0
322 -484 -323 0
-323 485 486 487 0
323 -485 0
323 -487 0
323 -486 0
324 -518 -519 -332 0
324 -518 519 -325 0
-324 518 0
-324 -519 332 0
-324 519 325 0
-325 520 326 0
-325 -520 329 0
325 -520 -329 0
325 520 -326 0
-326 -484 170 328 0
-326 484 170 327 0
326 -170 0
326 -484 -328 0
326 484 -327 0
-327 485 292 0
-327 -485 295 0
327 -485 -295 0
327 485 -292 0
-328 485 486 488 0
-328 485 486 487 0
328 -485 0
328 -486 0
328 -487 -488 0
-329 484 170 331 0
-329 -484 170 330 0
329 -170 0
329 484 -331 0
329 -484 -330 0
-330 485 486 143 0
330 -143 0
330 -486 0
330 -485 0
331 -485 -302 0
331 485 -300 0
-331 485 300 0
-331 -485 302 0
-332 520 333 0
-332 -520 335 0
332 -520 -335 0
332 520 -333 0
-333 484 170 334 0
-333 -484 170 330 0
333 -170 0
333 484 -334 0
333 -484 -330 0
334 -485 -309 0
334 485 -307 0
-334 485 307 0
-334 -485 309 0
-335 336 337 0
335 -336 0
335 -337 0
-336 484 170 0
336 -484 0
336 -170 0
-337 -485 312 0
-337 485 338 0
337 485 -338 0
337 -485 -312 0
-338 486 281 0
-338 -486 284 0
338 -486 -284 0
338 486 -281 0
-339 -517 355 0
-339 517 340 347 0
339 517 -340 0
339 -517 -355 0
339 517 -347 0
340 518 -519 -344 0
340 518 519 -341 0
-340 -518 0
-340 -519 344 0
-340 519 341 0
-341 520 342 0
-341 -520 343 0
341 -520 -343 0
341 520 -342 0
-342 212 336 0
342 -212 0
342 -336 0
-343 240 336 0
343 -240 0
343 -336 0
-344 520 345 0
-344 -520 346 0
344 -520 -346 0
344 520 -345 0
-345 268 336 0
345 -268 0
345 -336 0
-346 282 336 0
346 -282 0
346 -336 0
347 -518 -519 -351 0
347 -518 519 -348 0
-347 518 0
-347 -519 351 0
-347 519 348 0
-348 520 349 0
-348 -520 350 0
348 -520 -350 0
348 520 -349 0
-349 294 336 0
349 -294 0
349 -336 0
-350 301 336 0
350 -301 0
350 -336 0
-351 -520 353 0
-351 352 353 0
351 -353 0
351 520 -352 0
-352 308 336 0
352 -308 0
352 -336 0
353 -520 -354 0
-353 520 0
-353 354 0
-354 311 336 0
354 -311 0
354 -336 0
-355 -518 361 0
-355 518 356 358 0
355 518 -356 0
355 -518 -361 0
355 518 -358 0
356 519 -353 0
356 519 520 -357 0
-356 -519 0
-356 -520 353 0
-356 353 357 0
-357 317 336 0
357 -317 0
357 -336 0
358 -519 -520 -360 0
358 -519 520 -359 0
-358 519 0
-358 -520 360 0
-358 520 359 0
-359 321 336 0
359 -321 0
359 -336 0
-360 485 486 487 336 0
360 -336 0
360 -487 0
360 -485 0
360 -486 0
-361 519 -520 363 0
-361 -519 520 363 0
-361 519 520 362 0
361 -519 -363 0
361 -520 -363 0
361 -519 -520 0
361 519 520 -362 0
-362 328 336 0
362 -328 0
362 -336 0
-363 330 336 0
363 -330 0
363 -336 0
-364 484 170 379 0
-364 -484 170 365 0
364 -170 0
364 -484 -365 0
364 484 -379 0
-365 485 366 0
-365 -485 373 376 0
365 -485 -373 0
365 485 -366 0
365 -485 -376 0
-366 486 367 0
-366 -486 370 0
366 -486 -370 0
366 486 -367 0
-367 487 368 0
-367 -487 369 0
367 -487 -369 0
367 487 -368 0
-368 488 110 0
-368 -488 183 0
368 -488 -183 0
368 488 -110 0
-369 488 184 0
-369 -488 186 0
369 -488 -186 0
369 488 -184 0
-370 487 371 0
-370 -487 372 0
370 -487 -372 0
370 487 -371 0
-371 488 187 0
-371 -488 190 0
371 -488 -190 0
371 488 -187 0
-372 488 191 0
-372 -488 193 0
372 -488 -193 0
372 488 -191 0
373 486 -487 -375 0
373 486 487 -374 0
-373 -486 0
-373 -487 375 0
-373 487 374 0
-374 488 194 0
-374 -488 197 0
374 -488 -197 0
374 488 -194 0
-375 488 198 0
-375 -488 200 0
375 -488 -200 0
375 488 -198 0
376 -486 -487 -378 0
376 -486 487 -377 0
-376 486 0
-376 -487 378 0
-376 487 377 0
-377 488 201 0
-377 -488 204 0
377 -488 -204 0
377 488 -201 0
-378 488 205 0
378 -488 0
378 -205 0
-379 485 380 0
-379 -485 392 395 0
379 -485 -392 0
379 485 -380 0
379 -485 -395 0
-380 486 381 0
-380 -486 389 0
-380 486 -387 0
380 -486 -389 0
380 486 -381 387 0
-381 516 382 383 0
-381 -516 112 382 0
381 -382 0
381 -516 -112 0
381 516 -383 0
-382 25 143 0
382 -25 0
382 -143 0
-383 -517 139 0
-383 517 384 0
383 517 -384 0
383 -517 -139 0
-384 -518 161 0
-384 518 385 0
384 -518 -161 0
384 518 -385 0
385 519 -386 0
385 -519 -168 0
-385 -519 168 0
-385 519 386 0
-386 457 520 0
-386 458 -520 0
386 -458 -520 0
386 -457 520 0
-387 -487 -388 0
-387 487 -144 0
-387 487 488 0
387 -487 388 0
387 487 -488 144 0
-388 -488 153 0
-388 488 164 0
388 488 -164 0
388 -488 -153 0
-389 487 390 0
-389 -487 391 0
389 -487 -391 0
389 487 -390 0
-390 -488 117 0
-390 488 158 0
390 488 -158 0
390 -488 -117 0
-391 488 124 0
-391 -488 132 0
391 -488 -132 0
391 488 -124 0
392 486 -487 -394 0
392 486 487 -393 0
-392 -486 0
-392 -487 394 0
-392 487 393 0
-393 -488 9 0
-393 488 137 0
393 488 -137 0
393 -488 -9 0
-394 488 43 0
-394 -488 66 0
394 -488 -66 0
394 488 -43 0
395 -486 -487 -397 0
395 -486 487 -396 0
-395 486 0
-395 -487 397 0
-395 487 396 0
-396 488 78 0
-396 -488 91 0
396 -488 -91 0
396 488 -78 0
-397 488 97 0
-397 -488 104 0
397 -488 -104 0
397 488 -97 0
-398 -516 25 419 0
-398 516 25 399 0
398 -25 0
398 -516 -419 0
398 516 -399 0
-399 517 400 0
-399 -517 413 416 0
399 -517 -413 0
399 517 -400 0
399 -517 -416 0
-400 518 401 0
-400 -518 410 0
400 -518 -410 0
400 518 -401 0
-401 -519 409 0
-401 519 402 0
401 519 -402 0
401 -519 -409 0
402 -520 -211 0
402 520 -403 0
402 520 -170 0
-402 -520 211 0
-402 520 170 403 0
403 484 -408 0
403 -484 -337 0
403 484 -404 0
-403 -484 337 0
-403 484 404 408 0
404 485 486 -405 0
404 485 -486 -278 0
-404 -485 0
-404 -486 278 0
-404 486 405 0
405 -458 -407 0
405 406 -407 0
-405 407 0
-405 458 -406 0
406 487 -488 0
-406 -487 0
-406 488 0
407 -457 487 0
407 -487 -229 0
407 487 -488 0
-407 -487 229 0
-407 457 487 488 0
408 -485 -486 -280 0
408 -485 486 -277 0
-408 485 0
-408 -486 280 0
-408 486 277 0
-409 520 224 0
-409 -520 253 0
409 -520 -253 0
409 520 -224 0
-410 519 411 0
-410 -519 412 0
410 -519 -412 0
410 519 -411 0
-411 520 274 0
-411 -520 288 0
411 -520 -288 0
411 520 -274 0
-412 520 297 0
-412 -520 304 0
412 -520 -304 0
412 520 -297 0
413 518 -519 -415 0
413 518 519 -414 0
-413 -518 0
-413 -519 415 0
-413 519 414 0
-414 520 310 0
-414 -520 316 0
414 -520 -316 0
414 520 -310 0
-415 520 318 0
-415 -520 320 0
415 -520 -320 0
415 520 -318 0
416 -518 -519 -418 0
416 -518 519 -417 0
-416 518 0
-416 -519 418 0
-416 519 417 0
-417 520 322 0
-417 -520 326 0
417 -520 -326 0
417 520 -322 0
-418 520 329 0
-418 -520 333 0
418 -520 -333 0
418 520 -329 0
-419 517 420 0
-419 -517 427 431 0
419 -517 -427 0
419 517 -420 0
419 -517 -431 0
-420 518 421 0
-420 -518 424 0
420 -518 -424 0
420 518 -421 0
-421 519 422 0
-421 -519 423 0
421 -519 -423 0
421 519 -422 0
-422 520 335 0
-422 -520 342 0
422 -520 -342 0
422 520 -335 0
-423 520 343 0
-423 -520 345 0
423 -520 -345 0
423 520 -343 0
-424 519 425 0
-424 -519 426 0
424 -519 -426 0
424 519 -425 0
-425 520 346 0
-425 -520 349 0
425 -520 -349 0
425 520 -346 0
-426 520 350 0
-426 -520 352 0
426 -520 -352 0
426 520 -350 0
427 518 -519 -430 0
427 518 519 -428 0
-427 -518 0
-427 -519 430 0
-427 519 428 0
-428 357 429 0
-428 520 429 0
428 -429 0
428 -520 -357 0
429 520 -354 0
-429 -520 0
-429 354 0
-430 359 429 0
-430 520 429 0
430 -429 0
430 -520 -359 0
431 -518 519 -432 0
431 -518 -519 -363 0
-431 518 0
-431 -519 363 0
-431 519 432 0
-432 520 360 0
-432 -520 362 0
432 -520 -362 0
432 520 -360 0
-433 -484 170 440 0
-433 484 170 434 0
433 -170 0
433 -484 -440 0
433 484 -434 0
-434 485 435 0
-434 -485 438 439 0
434 -485 -438 0
434 485 -435 0
434 -485 -439 0
-435 486 436 0
-435 -486 437 0
435 -486 -437 0
435 486 -436 0
-436 487 388 0
-436 -487 390 0
436 -487 -390 0
436 487 -388 0
-437 487 391 0
-437 -487 393 0
437 -487 -393 0
437 487 -391 0
438 486 -487 -396 0
438 486 487 -394 0
-438 -486 0
-438 -487 396 0
-438 487 394 0
439 -486 487 -397 0
439 -486 -487 -368 0
-439 486 0
-439 -487 368 0
-439 487 397 0
-440 -485 443 0
-440 485 441 442 0
440 485 -441 0
440 -485 -443 0
440 485 -442 0
441 486 -487 -371 0
441 486 487 -369 0
-441 -486 0
-441 -487 371 0
-441 487 369 0
442 -486 -487 -374 0
442 -486 487 -372 0
-442 486 0
-442 -487 374 0
-442 487 372 0
-443 486 444 0
-443 -486 487 378 0
443 -486 -487 0
443 486 -444 0
443 -486 -378 0
-444 487 375 0
-444 -487 377 0
444 -487 -377 0
444 487 -375 0
-445 -516 25 452 0
-445 516 25 446 0
445 -25 0
445 -516 -452 0
445 516 -446 0
-446 517 447 0
-446 -517 450 451 0
446 -517 -450 0
446 517 -447 0
446 -517 -451 0
-447 518 448 0
-447 -518 449 0
447 -518 -449 0
447 518 -448 0
-448 519 409 0
-448 -519 411 0
448 -519 -411 0
448 519 -409 0
-449 519 412 0
-449 -519 414 0
449 -519 -414 0
449 519 -412 0
450 518 -519 -417 0
450 518 519 -415 0
-450 -518 0
-450 -519 417 0
-450 519 415 0
451 -518 -519 -422 0
451 -518 519 -418 0
-451 518 0
-451 -519 422 0
-451 519 418 0
-452 -517 455 0
-452 517 453 454 0
452 517 -453 0
452 -517 -455 0
452 517 -454 0
453 518 -519 -425 0
453 518 519 -423 0
-453 -518 0
-453 -519 425 0
-453 519 423 0
454 -518 -519 -428 0
454 -518 519 -426 0
-454 518 0
-454 -519 428 0
-454 519 426 0
-455 518 456 0
-455 -518 519 363 0
455 -518 -519 0
455 518 -456 0
455 -518 -363 0
-456 519 430 0
-456 -519 432 0
456 -519 -432 0
456 519 -430 0
-521 0
2 0

